1 -1 2 0
1 1 -3 0
1 4 -5 0
1 6 -7 0
1 -6 8 0
1 8 9 0
1 -8 1 0
1 -8 -6 0
1 8 10 0
1 8 11 0
1 -12 -11 0
1 3 -13 0
1 3 -14 0
1 -3 -12 0
1 -3 -15 0
1 10 16 0
1 -10 -6 0
1 17 6 0
1 -17 10 0
1 -7 18 0
1 -9 -19 0
1 -9 -7 0
1 -9 -8 0
1 19 20 0
1 19 -21 0
1 -19 -9 0
1 -19 -22 0
1 -19 -7 0
1 21 -22 0
1 -21 10 0
1 23 17 0
1 23 -14 0
1 23 -24 0
1 23 25 0
1 23 4 0
1 16 26 0
1 16 4 0
1 22 20 0
1 -22 18 0
1 -20 -27 0
1 28 29 0
1 -30 -21 0
1 -30 19 0
1 30 -18 0
1 18 -27 0
1 18 22 0
1 -18 31 0
1 -27 -30 0
1 27 -28 0
1 -29 9 0
1 29 -28 0
1 -32 33 0
1 -32 34 0
1 -35 36 0
1 -35 -37 0
1 35 38 0
1 35 -5 0
1 39 -40 0
1 -39 -35 0
1 39 15 0
1 41 -42 0
1 -41 -43 0
1 -41 35 0
1 -41 -44 0
1 41 -5 0
1 45 46 0
1 -45 -5 0
1 -37 47 0
1 37 -35 0
1 -37 48 0
1 15 -13 0
1 -15 49 0
1 -15 12 0
1 15 -10 0
1 15 -50 0
1 13 -17 0
1 -13 15 0
1 -51 39 0
1 51 -41 0
1 51 -52 0
1 -43 -39 0
1 -43 -36 0
1 43 46 0
1 -43 -12 0
1 -43 -41 0
1 -43 -51 0
1 -49 43 0
1 -49 53 0
1 38 43 0
1 -38 51 0
1 -36 -54 0
1 -36 35 0
1 -36 53 0
1 -36 -5 0
1 -55 36 0
1 55 -35 0
1 -55 56 0
1 55 -51 0
1 -55 57 0
1 -55 15 0
1 -55 -5 0
1 25 -58 0
1 -25 -22 0
1 -25 -44 0
1 -59 -38 0
1 -24 16 0
1 -24 60 0
1 -24 23 0
1 -26 -61 0
1 62 59 0
1 -62 -24 0
1 52 63 0
1 -52 -24 0
1 -52 25 0
1 -58 26 0
1 58 -53 0
1 58 -25 0
1 58 61 0
1 -58 -64 0
1 -61 26 0
1 61 58 0
1 -61 -51 0
1 63 -32 0
1 -33 -62 0
1 -33 65 0
1 -33 -66 0
1 -33 60 0
1 -67 52 0
1 60 63 0
1 60 -68 0
1 69 -70 0
1 69 -71 0
1 -69 60 0
1 69 -8 0
1 -69 -34 0
1 -66 -72 0
1 -66 -73 0
1 66 74 0
1 66 -34 0
1 -74 3 0
1 -74 75 0
1 -71 -76 0
1 71 -77 0
1 71 -29 0
1 78 71 0
1 -78 -29 0
1 78 -18 0
1 79 69 0
1 79 -80 0
1 79 -81 0
1 -79 -82 0
1 -81 80 0
1 81 83 0
1 -77 -33 0
1 -77 -84 0
1 85 86 0
1 83 -79 0
1 -83 78 0
1 -80 87 0
1 -80 83 0
1 80 -88 0
1 -84 -77 0
1 89 -90 0
1 91 -85 0
1 -91 90 0
1 91 -77 0
1 -91 92 0
1 31 93 0
1 31 94 0
1 -31 -95 0
1 -31 91 0
1 -31 96 0
1 82 27 0
1 82 81 0
1 90 93 0
1 90 -97 0
1 -90 32 0
1 90 -98 0
1 90 91 0
1 -90 81 0
1 -99 -100 0
1 101 -100 0
1 101 102 0
1 -103 100 0
1 103 104 0
1 -103 105 0
1 103 -106 0
1 103 -5 0
1 103 -107 0
1 105 107 0
1 108 46 0
1 108 102 0
1 -108 -109 0
1 108 110 0
1 102 111 0
1 -112 -105 0
1 -112 109 0
1 100 -103 0
1 -100 -99 0
1 -50 -108 0
1 50 15 0
1 -47 107 0
1 -113 106 0
1 113 -37 0
1 113 114 0
1 46 43 0
1 46 104 0
1 46 -107 0
1 -107 54 0
1 -107 42 0
1 -107 -113 0
1 -107 -115 0
1 106 105 0
1 106 50 0
1 -114 -116 0
1 114 117 0
1 104 105 0
1 -44 36 0
1 -44 55 0
1 44 118 0
1 56 -40 0
1 -56 119 0
1 56 55 0
1 56 -107 0
1 -54 40 0
1 -54 55 0
1 -120 -121 0
1 120 122 0
1 120 -56 0
1 -120 -113 0
1 -120 -64 0
1 122 -120 0
1 -122 -54 0
1 -122 42 0
1 -122 -44 0
1 -122 -113 0
1 -118 123 0
1 118 124 0
1 -118 -121 0
1 -118 -113 0
1 -124 44 0
1 -124 -125 0
1 -124 118 0
1 -126 -120 0
1 126 -127 0
1 126 -55 0
1 126 38 0
1 126 61 0
1 126 -34 0
1 -65 33 0
1 65 57 0
1 -65 128 0
1 64 129 0
1 64 -58 0
1 -64 -130 0
1 64 119 0
1 -64 -128 0
1 40 119 0
1 40 73 0
1 -40 64 0
1 -119 54 0
1 119 41 0
1 127 45 0
1 -127 131 0
1 -127 -132 0
1 -127 56 0
1 -127 133 0
1 130 -54 0
1 -76 134 0
1 76 -119 0
1 76 75 0
1 75 -128 0
1 72 -135 0
1 72 136 0
1 72 74 0
1 73 129 0
1 73 81 0
1 -73 135 0
1 134 128 0
1 134 -87 0
1 134 137 0
1 -134 72 0
1 134 -138 0
1 134 -75 0
1 -128 -139 0
1 128 65 0
1 128 -88 0
1 -128 75 0
1 -129 139 0
1 57 140 0
1 -57 75 0
1 -87 69 0
1 87 80 0
1 87 134 0
1 -87 83 0
1 -87 -88 0
1 -88 -80 0
1 -88 -134 0
1 -88 83 0
1 -141 -70 0
1 141 83 0
1 -141 -136 0
1 92 -142 0
1 92 -83 0
1 -92 91 0
1 92 -135 0
1 92 143 0
1 144 145 0
1 -144 146 0
1 136 144 0
1 136 -92 0
1 142 -141 0
1 142 -135 0
1 142 -72 0
1 -135 92 0
1 -135 -88 0
1 -135 -61 0
1 -97 144 0
1 97 98 0
1 -97 -83 0
1 98 -80 0
1 -98 -68 0
1 -98 -136 0
1 -147 -148 0
1 -147 86 0
1 149 90 0
1 149 143 0
1 -68 -93 0
1 -68 -141 0
1 68 -92 0
1 68 150 0
1 70 -69 0
1 -70 -97 0
1 70 -141 0
1 70 -98 0
1 -70 -151 0
1 152 143 0
1 143 -146 0
1 143 -152 0
1 143 -150 0
1 93 145 0
1 -93 -70 0
1 -93 -82 0
1 -95 -70 0
1 -95 153 0
1 -95 -146 0
1 95 154 0
1 95 -155 0
1 -95 -31 0
1 -151 -153 0
1 -156 -157 0
1 156 -158 0
1 -158 -159 0
1 158 160 0
1 158 161 0
1 -86 -93 0
1 -86 -85 0
1 -86 159 0
1 -86 -160 0
1 86 -95 0
1 -86 158 0
1 86 -162 0
1 -153 93 0
1 -153 147 0
1 -153 159 0
1 -153 163 0
1 -153 156 0
1 -161 96 0
1 160 164 0
1 -165 -86 0
1 165 -166 0
1 -165 167 0
1 168 -164 0
1 166 -169 0
1 -166 160 0
1 166 -170 0
1 -166 161 0
1 -164 -171 0
1 -164 -168 0
1 -164 -155 0
1 -164 -151 0
1 171 90 0
1 171 168 0
1 -171 -160 0
1 -171 -156 0
1 -171 170 0
1 171 -172 0
1 -171 -162 0
1 171 161 0
1 -173 -174 0
1 175 176 0
1 -174 -177 0
1 174 178 0
1 -174 -179 0
1 176 -180 0
1 179 177 0
1 -179 -181 0
1 -179 -112 0
1 179 174 0
1 179 182 0
1 -177 -112 0
1 177 174 0
1 177 -179 0
1 178 -183 0
1 178 -100 0
1 -178 -181 0
1 178 -184 0
1 -178 -185 0
1 -178 174 0
1 -178 -186 0
1 187 188 0
1 187 189 0
1 -187 190 0
1 187 185 0
1 187 174 0
1 184 -191 0
1 -191 -192 0
1 191 193 0
1 -191 -175 0
1 -191 184 0
1 -181 -194 0
1 181 -195 0
1 -186 -173 0
1 -196 -183 0
1 196 -185 0
1 -196 -197 0
1 198 104 0
1 198 196 0
1 -198 -191 0
1 -185 -198 0
1 185 199 0
1 185 200 0
1 185 -201 0
1 -185 109 0
1 185 -178 0
1 185 202 0
1 -183 -116 0
1 -183 203 0
1 183 204 0
1 -183 185 0
1 -183 -178 0
1 183 202 0
1 -183 -205 0
1 -190 206 0
1 190 -109 0
1 -188 193 0
1 188 -198 0
1 188 -207 0
1 188 -196 0
1 188 -109 0
1 201 -124 0
1 -201 207 0
1 201 -114 0
1 116 -185 0
1 116 197 0
1 -116 110 0
1 -116 -118 0
1 200 208 0
1 -200 -124 0
1 -200 206 0
1 -200 -185 0
1 205 -208 0
1 205 124 0
1 -205 -110 0
1 -110 209 0
1 -110 -210 0
1 110 125 0
1 197 -116 0
1 197 -198 0
1 -211 198 0
1 211 212 0
1 121 -118 0
1 125 202 0
1 -132 -213 0
1 -132 117 0
1 -214 -132 0
1 -214 130 0
1 -214 -123 0
1 -115 -133 0
1 115 -107 0
1 -208 132 0
1 -208 200 0
1 208 -133 0
1 -117 215 0
1 117 121 0
1 -117 216 0
1 -215 217 0
1 215 117 0
1 -131 87 0
1 131 -208 0
1 131 130 0
1 -131 -133 0
1 -131 123 0
1 -133 208 0
1 -133 -218 0
1 -133 -115 0
1 219 115 0
1 219 -123 0
1 -220 208 0
1 -220 -218 0
1 213 -221 0
1 213 219 0
1 213 -131 0
1 -213 -222 0
1 -213 223 0
1 -222 223 0
1 -123 224 0
1 -123 -225 0
1 123 226 0
1 -218 -225 0
1 218 -227 0
1 218 -220 0
1 218 123 0
1 -138 -226 0
1 138 -228 0
1 138 -128 0
1 138 -135 0
1 148 229 0
1 -148 -230 0
1 -148 -222 0
1 231 -148 0
1 -231 232 0
1 231 -135 0
1 230 -219 0
1 -228 -148 0
1 -228 231 0
1 -228 138 0
1 229 148 0
1 229 -127 0
1 -229 138 0
1 229 -220 0
1 232 229 0
1 -232 -139 0
1 232 233 0
1 -145 146 0
1 146 -142 0
1 -146 234 0
1 146 -135 0
1 -235 -137 0
1 235 236 0
1 -235 -152 0
1 -235 -140 0
1 -157 -237 0
1 157 238 0
1 -137 -145 0
1 137 -234 0
1 234 231 0
1 -234 239 0
1 234 167 0
1 240 241 0
1 140 145 0
1 -140 -241 0
1 140 57 0
1 -150 70 0
1 150 -152 0
1 -150 154 0
1 242 -70 0
1 -242 -237 0
1 242 -143 0
1 -167 -236 0
1 -167 -243 0
1 167 244 0
1 -163 137 0
1 163 -237 0
1 -163 -167 0
1 163 -238 0
1 245 -246 0
1 245 -162 0
1 -245 -235 0
1 -238 -247 0
1 238 235 0
1 -236 248 0
1 -236 -242 0
1 236 -237 0
1 236 -249 0
1 -237 163 0
1 237 -250 0
1 -162 153 0
1 162 -243 0
1 162 -154 0
1 -162 158 0
1 162 164 0
1 251 252 0
1 251 -171 0
1 251 253 0
1 243 254 0
1 -243 -255 0
1 -243 -159 0
1 243 170 0
1 -243 256 0
1 -252 254 0
1 -252 70 0
1 252 -162 0
1 257 -258 0
1 257 163 0
1 257 162 0
1 -258 -159 0
1 170 -249 0
1 -255 -259 0
1 -260 -254 0
1 -260 -169 0
1 260 243 0
1 260 261 0
1 254 -259 0
1 254 -261 0
1 254 -262 0
1 254 -263 0
1 -253 255 0
1 -253 -251 0
1 253 -259 0
1 -253 172 0
1 -253 -264 0
1 -253 -265 0
1 259 86 0
1 -259 -266 0
1 -259 -253 0
1 -261 -267 0
1 261 -268 0
1 269 -270 0
1 -269 271 0
1 -269 -272 0
1 269 -260 0
1 -269 -172 0
1 269 273 0
1 274 -275 0
1 274 -253 0
1 266 -264 0
1 -169 -254 0
1 -169 276 0
1 -169 264 0
1 -262 254 0
1 262 -275 0
1 -262 164 0
1 262 -273 0
1 275 266 0
1 275 -277 0
1 -275 262 0
1 -278 279 0
1 278 280 0
1 -281 -282 0
1 283 284 0
1 -283 285 0
1 283 286 0
1 -284 -180 0
1 -284 279 0
1 279 -284 0
1 -279 -287 0
1 279 288 0
1 279 182 0
1 280 -289 0
1 280 290 0
1 -285 -278 0
1 -285 -289 0
1 285 291 0
1 182 -292 0
1 182 -179 0
1 180 284 0
1 -180 282 0
1 -180 176 0
1 180 -293 0
1 180 -292 0
1 288 -294 0
1 288 -295 0
1 -294 296 0
1 -294 -279 0
1 294 -292 0
1 296 297 0
1 -292 296 0
1 -292 294 0
1 -292 298 0
1 292 281 0
1 282 -299 0
1 -282 -300 0
1 282 -281 0
1 301 -302 0
1 301 289 0
1 -195 303 0
1 195 -295 0
1 -195 289 0
1 -304 -300 0
1 -304 -176 0
1 304 -189 0
1 304 292 0
1 305 -292 0
1 -305 -196 0
1 -306 -307 0
1 306 -308 0
1 -306 -206 0
1 -295 195 0
1 309 -310 0
1 -309 -311 0
1 207 -306 0
1 -207 312 0
1 -206 192 0
1 206 306 0
1 206 295 0
1 307 313 0
1 -307 206 0
1 -307 205 0
1 -314 315 0
1 314 202 0
1 314 -312 0
1 -312 307 0
1 -316 317 0
1 318 -319 0
1 -318 206 0
1 -318 207 0
1 -199 183 0
1 199 -197 0
1 202 -312 0
1 -320 211 0
1 -320 314 0
1 -320 -321 0
1 320 -322 0
1 320 197 0
1 -320 214 0
1 -323 307 0
1 323 -206 0
1 323 324 0
1 -323 320 0
1 323 202 0
1 -192 209 0
1 192 -210 0
1 -325 212 0
1 -325 206 0
1 -325 324 0
1 -325 -326 0
1 -327 -328 0
1 -327 325 0
1 -327 202 0
1 209 -203 0
1 -209 321 0
1 -209 -322 0
1 210 -211 0
1 210 -209 0
1 -210 -110 0
1 216 -215 0
1 -216 -329 0
1 216 -117 0
1 322 203 0
1 322 330 0
1 322 -209 0
1 322 226 0
1 203 -183 0
1 -203 330 0
1 203 -209 0
1 -321 -330 0
1 -321 -209 0
1 321 331 0
1 -321 -210 0
1 332 212 0
1 332 333 0
1 227 334 0
1 227 335 0
1 227 -226 0
1 -227 -336 0
1 -227 115 0
1 -226 203 0
1 -226 -335 0
1 226 329 0
1 226 208 0
1 -226 -324 0
1 226 -337 0
1 -225 -203 0
1 225 338 0
1 -339 -340 0
1 -337 341 0
1 337 342 0
1 329 -341 0
1 329 -225 0
1 -329 343 0
1 -329 -344 0
1 -329 -223 0
1 -336 -227 0
1 -336 330 0
1 336 197 0
1 -336 -216 0
1 335 -211 0
1 342 -145 0
1 -223 229 0
1 223 329 0
1 223 345 0
1 223 -218 0
1 223 346 0
1 -223 337 0
1 341 -229 0
1 341 -345 0
1 341 232 0
1 -344 -221 0
1 344 -329 0
1 -344 340 0
1 340 225 0
1 340 345 0
1 340 -115 0
1 340 347 0
1 345 348 0
1 345 241 0
1 -345 344 0
1 345 223 0
1 -338 342 0
1 338 -217 0
1 338 349 0
1 -338 350 0
1 338 -117 0
1 -241 229 0
1 241 240 0
1 241 345 0
1 244 351 0
1 -244 348 0
1 -244 -352 0
1 -348 -349 0
1 -348 353 0
1 221 -341 0
1 221 213 0
1 -354 -355 0
1 -354 248 0
1 354 241 0
1 -224 241 0
1 -224 -356 0
1 224 -357 0
1 -353 341 0
1 353 -355 0
1 353 348 0
1 353 -358 0
1 353 357 0
1 359 -351 0
1 359 -240 0
1 -360 -234 0
1 -360 -240 0
1 -360 354 0
1 -360 237 0
1 250 354 0
1 -250 -352 0
1 248 -351 0
1 248 -233 0
1 -248 361 0
1 -248 237 0
1 -351 362 0
1 -351 363 0
1 351 -244 0
1 -352 364 0
1 -352 -365 0
1 352 -248 0
1 -352 351 0
1 352 360 0
1 352 249 0
1 -352 -250 0
1 -352 359 0
1 -366 360 0
1 -366 -233 0
1 366 -359 0
1 -233 -367 0
1 -249 351 0
1 -249 -237 0
1 -249 238 0
1 -368 258 0
1 368 236 0
1 -368 238 0
1 369 365 0
1 369 370 0
1 -365 370 0
1 365 -239 0
1 -365 -247 0
1 -370 270 0
1 -370 249 0
1 370 -250 0
1 -370 -268 0
1 -239 365 0
1 239 248 0
1 371 -364 0
1 371 372 0
1 371 -250 0
1 371 -373 0
1 361 -374 0
1 -375 -270 0
1 -375 252 0
1 375 -274 0
1 375 261 0
1 375 239 0
1 -270 -269 0
1 270 246 0
1 -270 -243 0
1 270 -265 0
1 272 376 0
1 272 377 0
1 -272 -246 0
1 272 261 0
1 -272 247 0
1 268 -269 0
1 -268 -370 0
1 268 -378 0
1 -268 -239 0
1 268 -247 0
1 268 -379 0
1 246 245 0
1 -246 277 0
1 -246 -268 0
1 247 -380 0
1 247 381 0
1 247 -277 0
1 247 382 0
1 -378 383 0
1 -378 384 0
1 -385 -378 0
1 385 373 0
1 -381 269 0
1 -381 -259 0
1 -381 -386 0
1 381 261 0
1 273 -275 0
1 273 247 0
1 -277 377 0
1 277 -387 0
1 277 388 0
1 256 389 0
1 -256 277 0
1 -377 390 0
1 -377 391 0
1 -377 272 0
1 -377 277 0
1 377 273 0
1 377 268 0
1 -388 -272 0
1 388 257 0
1 388 273 0
1 -376 380 0
1 -376 -381 0
1 376 -277 0
1 392 -380 0
1 -392 256 0
1 -389 -262 0
1 389 263 0
1 -393 271 0
1 393 -256 0
1 394 -393 0
1 -394 -387 0
1 394 256 0
1 -387 -393 0
1 -387 391 0
1 -387 -394 0
1 387 277 0
1 -267 395 0
1 -267 391 0
1 -267 261 0
1 -267 389 0
1 -271 -392 0
1 -271 396 0
1 397 -398 0
1 397 -399 0
1 -400 396 0
1 401 -402 0
1 402 -401 0
1 402 276 0
1 403 -404 0
1 276 393 0
1 -276 405 0
1 -276 394 0
1 399 -406 0
1 399 401 0
1 399 405 0
1 -399 -407 0
1 -399 -402 0
1 -408 406 0
1 408 -401 0
1 408 -397 0
1 408 -407 0
1 408 399 0
1 -408 -409 0
1 -410 -411 0
1 -410 412 0
1 413 414 0
1 286 -415 0
1 -286 -414 0
1 -412 -293 0
1 -412 416 0
1 412 -413 0
1 417 -293 0
1 -417 -286 0
1 417 411 0
1 417 413 0
1 414 418 0
1 -418 -286 0
1 291 -293 0
1 291 419 0
1 291 182 0
1 -293 -420 0
1 -293 285 0
1 -290 -415 0
1 290 421 0
1 290 288 0
1 -422 -417 0
1 422 412 0
1 -423 -422 0
1 -420 -293 0
1 -420 -286 0
1 420 424 0
1 -420 -289 0
1 -419 425 0
1 419 415 0
1 419 422 0
1 -419 426 0
1 -419 291 0
1 -419 413 0
1 415 -422 0
1 -289 -195 0
1 -289 427 0
1 300 284 0
1 -300 304 0
1 -300 -420 0
1 -428 -429 0
1 428 -282 0
1 428 -430 0
1 431 -313 0
1 -431 422 0
1 431 -421 0
1 431 428 0
1 -431 -290 0
1 -421 422 0
1 -421 -290 0
1 -427 -432 0
1 427 422 0
1 -427 433 0
1 434 -435 0
1 -434 300 0
1 -434 436 0
1 434 -433 0
1 -434 -289 0
1 434 427 0
1 311 429 0
1 -311 424 0
1 -302 -282 0
1 302 303 0
1 302 287 0
1 -437 313 0
1 -437 -303 0
1 -437 -287 0
1 437 433 0
1 -313 298 0
1 313 -309 0
1 313 -438 0
1 429 437 0
1 -429 -428 0
1 287 -439 0
1 287 311 0
1 -438 -432 0
1 -438 299 0
1 438 280 0
1 438 -437 0
1 438 311 0
1 430 432 0
1 430 440 0
1 -310 309 0
1 441 -306 0
1 317 -442 0
1 -317 308 0
1 -317 443 0
1 -444 -308 0
1 444 -443 0
1 -297 445 0
1 297 310 0
1 -297 -446 0
1 -297 441 0
1 -298 -313 0
1 298 -297 0
1 -298 -328 0
1 -298 -437 0
1 447 301 0
1 447 -448 0
1 328 314 0
1 -328 -298 0
1 326 297 0
1 -326 314 0
1 -326 -443 0
1 326 449 0
1 -450 451 0
1 -450 -446 0
1 446 452 0
1 446 -451 0
1 446 -298 0
1 446 -453 0
1 -446 -319 0
1 -446 327 0
1 -308 -306 0
1 -308 -450 0
1 308 333 0
1 -451 454 0
1 451 455 0
1 451 295 0
1 451 444 0
1 452 -445 0
1 -452 328 0
1 -452 326 0
1 -443 450 0
1 334 -192 0
1 -334 324 0
1 -334 319 0
1 324 -332 0
1 324 308 0
1 324 451 0
1 -324 456 0
1 457 -315 0
1 -457 458 0
1 -457 -321 0
1 457 333 0
1 -457 456 0
1 457 459 0
1 -333 460 0
1 -333 457 0
1 333 -339 0
1 -315 -461 0
1 315 -450 0
1 -315 -346 0
1 -315 -333 0
1 456 -446 0
1 -456 312 0
1 456 462 0
1 463 -455 0
1 319 -334 0
1 -319 -464 0
1 319 446 0
1 -346 -460 0
1 -346 -335 0
1 -346 -459 0
1 -461 460 0
1 -461 465 0
1 466 315 0
1 466 -344 0
1 -466 -458 0
1 466 -459 0
1 458 -323 0
1 -458 346 0
1 458 -467 0
1 -458 468 0
1 -460 -192 0
1 -460 -343 0
1 -460 333 0
1 460 468 0
1 -465 469 0
1 465 346 0
1 465 470 0
1 465 459 0
1 459 -333 0
1 -471 472 0
1 471 473 0
1 -343 -331 0
1 -343 -336 0
1 343 -337 0
1 468 -473 0
1 -468 -217 0
1 468 -458 0
1 -468 -474 0
1 349 -475 0
1 -349 -476 0
1 -474 -477 0
1 -474 357 0
1 -477 -343 0
1 477 466 0
1 331 -461 0
1 331 478 0
1 473 332 0
1 -473 479 0
1 -473 -468 0
1 480 -353 0
1 480 -476 0
1 480 -467 0
1 481 477 0
1 -481 -476 0
1 357 224 0
1 357 -475 0
1 -357 250 0
1 -357 -478 0
1 -482 -357 0
1 -482 476 0
1 483 -357 0
1 475 -484 0
1 485 -468 0
1 356 -224 0
1 356 221 0
1 -356 -350 0
1 355 486 0
1 355 487 0
1 355 233 0
1 -488 483 0
1 488 233 0
1 -367 489 0
1 -367 -366 0
1 367 -488 0
1 367 -476 0
1 347 487 0
1 -347 356 0
1 -347 -490 0
1 347 379 0
1 -487 -345 0
1 -487 -488 0
1 487 -490 0
1 -350 367 0
1 350 -491 0
1 -350 -492 0
1 486 -367 0
1 486 350 0
1 363 -493 0
1 363 -358 0
1 -363 -375 0
1 363 -491 0
1 363 233 0
1 -364 -493 0
1 364 233 0
1 -494 272 0
1 -379 -362 0
1 -379 -358 0
1 -379 -495 0
1 496 367 0
1 -496 -493 0
1 -496 -494 0
1 496 -354 0
1 -497 -498 0
1 497 -363 0
1 497 499 0
1 -358 -500 0
1 -358 -353 0
1 358 363 0
1 -358 490 0
1 -386 493 0
1 386 495 0
1 -373 493 0
1 373 -371 0
1 -373 -378 0
1 -373 496 0
1 373 -361 0
1 -501 -391 0
1 501 502 0
1 -501 -503 0
1 -501 -504 0
1 -505 503 0
1 -362 506 0
1 362 -373 0
1 -507 -508 0
1 507 384 0
1 -507 505 0
1 507 373 0
1 509 501 0
1 -509 379 0
1 495 -510 0
1 -495 -494 0
1 -495 -233 0
1 495 511 0
1 -495 -499 0
1 495 379 0
1 380 -362 0
1 -380 -504 0
1 384 -247 0
1 512 393 0
1 -512 -513 0
1 -512 -374 0
1 512 -382 0
1 -506 362 0
1 506 -388 0
1 506 511 0
1 503 398 0
1 503 512 0
1 -504 -503 0
1 504 -514 0
1 504 -506 0
1 -372 515 0
1 -372 -501 0
1 -372 -384 0
1 -372 374 0
1 -374 -516 0
1 -374 -506 0
1 -398 376 0
1 398 377 0
1 398 383 0
1 398 -267 0
1 398 382 0
1 396 -398 0
1 396 -503 0
1 396 383 0
1 -396 400 0
1 -396 -382 0
1 -395 -383 0
1 -395 -514 0
1 -395 -517 0
1 514 -517 0
1 -513 406 0
1 -513 512 0
1 -513 -518 0
1 -513 514 0
1 -382 519 0
1 -382 407 0
1 382 520 0
1 -383 -396 0
1 521 515 0
1 521 506 0
1 521 522 0
1 407 513 0
1 409 523 0
1 409 517 0
1 409 524 0
1 -525 526 0
1 -525 -527 0
1 528 -406 0
1 528 529 0
1 528 405 0
1 -528 525 0
1 -528 -409 0
1 390 -514 0
1 390 -409 0
1 -517 530 0
1 517 -531 0
1 -517 532 0
1 523 530 0
1 523 -531 0
1 523 -514 0
1 -523 -409 0
1 404 -526 0
1 -404 -533 0
1 404 520 0
1 -405 -526 0
1 -405 -408 0
1 405 -276 0
1 405 -404 0
1 534 535 0
1 534 536 0
1 529 390 0
1 529 537 0
1 529 -538 0
1 -539 -529 0
1 -539 -540 0
1 533 -387 0
1 533 539 0
1 -533 404 0
1 533 -409 0
1 -535 -405 0
1 -540 538 0
1 -541 538 0
1 -538 -534 0
1 -537 542 0
1 -537 543 0
1 537 534 0
1 -544 399 0
1 544 -540 0
1 -544 534 0
1 -424 545 0
1 -424 -416 0
1 424 -423 0
1 -425 302 0
1 425 416 0
1 425 -427 0
1 433 546 0
1 433 -547 0
1 433 -548 0
1 435 549 0
1 -416 435 0
1 416 -550 0
1 -416 -551 0
1 549 -432 0
1 549 -552 0
1 549 -436 0
1 553 -414 0
1 -545 -418 0
1 436 -431 0
1 -432 -421 0
1 -432 -416 0
1 -432 548 0
1 432 438 0
1 440 -546 0
1 551 554 0
1 551 -426 0
1 547 -555 0
1 -426 -556 0
1 -426 -557 0
1 -546 -435 0
1 546 -426 0
1 -546 551 0
1 -449 442 0
1 449 558 0
1 -449 -439 0
1 -449 430 0
1 -449 -447 0
1 449 -326 0
1 559 -450 0
1 559 -548 0
1 -559 -453 0
1 -453 548 0
1 453 560 0
1 -453 561 0
1 -554 558 0
1 -554 439 0
1 -561 562 0
1 561 563 0
1 561 453 0
1 561 -551 0
1 -562 564 0
1 -562 -563 0
1 -445 560 0
1 -445 -447 0
1 445 -443 0
1 -445 -448 0
1 -448 560 0
1 -448 442 0
1 448 -558 0
1 -565 452 0
1 -565 558 0
1 565 554 0
1 566 -567 0
1 -566 568 0
1 -566 -569 0
1 566 563 0
1 560 429 0
1 -560 445 0
1 -560 464 0
1 -560 -453 0
1 570 560 0
1 570 -565 0
1 -570 -571 0
1 -570 -453 0
1 -567 -565 0
1 567 -445 0
1 568 -430 0
1 -568 -448 0
1 -568 453 0
1 -454 -572 0
1 454 -573 0
1 -454 -463 0
1 -455 -454 0
1 -455 -308 0
1 -574 575 0
1 -574 -576 0
1 574 570 0
1 464 -577 0
1 464 578 0
1 -579 -464 0
1 -580 -574 0
1 -580 -454 0
1 580 -565 0
1 580 -464 0
1 -580 -298 0
1 580 -566 0
1 -572 -574 0
1 572 -566 0
1 -569 581 0
1 -569 -582 0
1 -569 447 0
1 -569 455 0
1 569 566 0
1 472 -463 0
1 -472 456 0
1 -469 -576 0
1 469 -315 0
1 -469 -583 0
1 -469 319 0
1 469 456 0
1 -584 585 0
1 584 459 0
1 -586 -575 0
1 -586 -349 0
1 -586 580 0
1 -586 578 0
1 -586 584 0
1 576 -587 0
1 575 472 0
1 -575 588 0
1 -575 589 0
1 -575 584 0
1 -578 -472 0
1 -578 -464 0
1 578 -584 0
1 -467 473 0
1 467 -590 0
1 -467 462 0
1 591 576 0
1 591 -592 0
1 478 473 0
1 -478 -593 0
1 478 -594 0
1 -478 470 0
1 -478 -595 0
1 -478 331 0
1 478 -357 0
1 -596 590 0
1 -596 331 0
1 462 -591 0
1 -462 594 0
1 462 -456 0
1 462 597 0
1 593 598 0
1 -593 -599 0
1 593 -478 0
1 -593 592 0
1 592 -587 0
1 592 -584 0
1 -600 -477 0
1 -600 484 0
1 -600 -475 0
1 -600 462 0
1 484 -601 0
1 484 477 0
1 484 470 0
1 -484 475 0
1 602 601 0
1 602 603 0
1 489 -479 0
1 489 -470 0
1 595 -604 0
1 595 -605 0
1 -595 602 0
1 -601 604 0
1 601 -491 0
1 601 -600 0
1 470 -606 0
1 607 608 0
1 607 609 0
1 491 -604 0
1 -491 350 0
1 -604 -485 0
1 604 -486 0
1 -604 -595 0
1 604 610 0
1 604 -350 0
1 -605 479 0
1 605 486 0
1 -611 -612 0
1 610 613 0
1 614 -490 0
1 615 479 0
1 615 -602 0
1 -500 497 0
1 500 610 0
1 -500 -616 0
1 490 -487 0
1 490 -617 0
1 502 -618 0
1 -502 -358 0
1 -502 -619 0
1 502 -492 0
1 -619 -614 0
1 619 502 0
1 619 -620 0
1 617 -611 0
1 -617 -510 0
1 -617 621 0
1 -621 -502 0
1 621 617 0
1 -616 622 0
1 -612 605 0
1 612 -622 0
1 498 -618 0
1 498 -492 0
1 499 497 0
1 -499 623 0
1 -510 -624 0
1 511 625 0
1 511 -621 0
1 -618 -626 0
1 627 618 0
1 627 -628 0
1 492 -498 0
1 492 629 0
1 -492 -630 0
1 -629 -631 0
1 629 -510 0
1 -629 -628 0
1 -629 -499 0
1 626 -631 0
1 626 372 0
1 626 495 0
1 626 -374 0
1 632 509 0
1 -632 495 0
1 516 -633 0
1 -516 634 0
1 635 625 0
1 635 633 0
1 -635 636 0
1 635 -508 0
1 -625 -515 0
1 -625 -493 0
1 625 -510 0
1 -625 637 0
1 -634 625 0
1 634 637 0
1 638 639 0
1 -638 628 0
1 -638 632 0
1 636 -626 0
1 -636 -628 0
1 636 632 0
1 -636 -637 0
1 515 -406 0
1 -515 -640 0
1 515 -374 0
1 -640 508 0
1 -524 641 0
1 -524 634 0
1 -524 -642 0
1 -524 -409 0
1 -527 641 0
1 -527 643 0
1 633 -362 0
1 -633 531 0
1 -633 -532 0
1 -633 640 0
1 633 520 0
1 508 -516 0
1 508 520 0
1 -508 524 0
1 641 -509 0
1 641 -644 0
1 641 527 0
1 -641 645 0
1 642 516 0
1 520 -523 0
1 520 -513 0
1 -520 -646 0
1 520 -404 0
1 -532 -523 0
1 -532 -647 0
1 536 648 0
1 536 -643 0
1 536 -508 0
1 531 647 0
1 -531 508 0
1 531 -646 0
1 -647 649 0
1 -647 643 0
1 643 -531 0
1 643 527 0
1 643 -520 0
1 650 -651 0
1 650 524 0
1 -646 531 0
1 -646 520 0
1 652 390 0
1 652 -528 0
1 530 -647 0
1 653 -649 0
1 518 -513 0
1 -518 -649 0
1 -519 531 0
1 648 -649 0
1 -522 -531 0
1 556 562 0
1 -555 -550 0
1 654 -655 0
1 -654 562 0
1 -654 656 0
1 654 -550 0
1 -654 557 0
1 563 -655 0
1 563 656 0
1 563 -550 0
1 550 -657 0
1 -550 -658 0
1 552 549 0
1 -552 -564 0
1 -656 -553 0
1 659 660 0
1 573 -661 0
1 573 -557 0
1 -564 -567 0
1 564 661 0
1 657 -567 0
1 -657 -552 0
1 -657 662 0
1 657 568 0
1 657 663 0
1 577 655 0
1 577 -568 0
1 664 -573 0
1 664 -665 0
1 -664 666 0
1 -664 667 0
1 -655 581 0
1 655 657 0
1 655 -583 0
1 655 664 0
1 -655 667 0
1 -557 -573 0
1 -557 665 0
1 -557 577 0
1 -557 564 0
1 557 -563 0
1 661 557 0
1 581 472 0
1 581 560 0
1 -581 572 0
1 581 -568 0
1 -583 567 0
1 -583 572 0
1 -583 -662 0
1 583 -569 0
1 583 -664 0
1 585 668 0
1 -585 669 0
1 -582 -662 0
1 -582 569 0
1 -582 669 0
1 670 671 0
1 670 -672 0
1 670 558 0
1 670 -585 0
1 -669 -673 0
1 -669 577 0
1 662 -562 0
1 662 -577 0
1 662 -667 0
1 -674 675 0
1 -674 -588 0
1 674 676 0
1 674 -571 0
1 674 -663 0
1 588 575 0
1 589 672 0
1 672 -675 0
1 672 -668 0
1 672 677 0
1 672 -678 0
1 -672 578 0
1 -672 589 0
1 -668 679 0
1 668 -680 0
1 -668 582 0
1 668 -571 0
1 -668 589 0
1 571 679 0
1 -571 672 0
1 571 570 0
1 571 681 0
1 571 603 0
1 -571 585 0
1 675 682 0
1 675 -671 0
1 675 683 0
1 676 684 0
1 676 685 0
1 676 585 0
1 -599 668 0
1 599 686 0
1 -599 575 0
1 -599 578 0
1 -599 590 0
1 -587 671 0
1 -603 680 0
1 -603 571 0
1 603 592 0
1 -680 -686 0
1 -680 687 0
1 -687 680 0
1 687 -672 0
1 -687 -609 0
1 -687 -688 0
1 688 -608 0
1 -688 587 0
1 688 -609 0
1 -688 -689 0
1 -688 580 0
1 688 -599 0
1 686 -587 0
1 686 690 0
1 -686 672 0
1 686 -691 0
1 686 589 0
1 678 672 0
1 678 -691 0
1 -678 685 0
1 678 -692 0
1 689 -693 0
1 -606 694 0
1 606 -695 0
1 606 -470 0
1 -609 -695 0
1 -609 693 0
1 -609 -696 0
1 -609 597 0
1 -608 -607 0
1 608 -687 0
1 -608 -695 0
1 -695 576 0
1 695 -697 0
1 695 698 0
1 -695 689 0
1 -695 -699 0
1 695 620 0
1 700 -608 0
1 700 -606 0
1 700 -689 0
1 -700 699 0
1 -694 -609 0
1 -694 -701 0
1 693 -680 0
1 -693 694 0
1 693 -578 0
1 693 702 0
1 703 695 0
1 703 -595 0
1 -704 607 0
1 -705 479 0
1 705 700 0
1 705 -597 0
1 620 706 0
1 620 -597 0
1 -707 -708 0
1 -707 709 0
1 707 622 0
1 -707 597 0
1 597 710 0
1 -597 -609 0
1 -597 -622 0
1 597 704 0
1 -598 -711 0
1 -598 712 0
1 -598 709 0
1 598 713 0
1 -696 608 0
1 696 -711 0
1 696 598 0
1 696 620 0
1 -696 704 0
1 613 -706 0
1 613 -498 0
1 613 707 0
1 613 -615 0
1 613 -610 0
1 -613 597 0
1 623 714 0
1 623 -499 0
1 624 -706 0
1 -624 715 0
1 622 -716 0
1 622 -706 0
1 714 -717 0
1 714 -622 0
1 -706 718 0
1 -719 716 0
1 -719 -620 0
1 -716 -709 0
1 631 706 0
1 -631 612 0
1 631 -617 0
1 -720 621 0
1 -720 -709 0
1 -717 721 0
1 -630 -715 0
1 -630 492 0
1 -722 631 0
1 722 630 0
1 722 723 0
1 -724 725 0
1 724 -628 0
1 -724 720 0
1 -726 -727 0
1 726 715 0
1 726 728 0
1 726 729 0
1 -726 -622 0
1 -715 -631 0
1 -715 -624 0
1 715 630 0
1 715 622 0
1 -730 -636 0
1 730 -731 0
1 628 -638 0
1 628 627 0
1 -732 727 0
1 732 -638 0
1 -732 -724 0
1 -732 733 0
1 732 725 0
1 732 -722 0
1 -732 734 0
1 -731 644 0
1 731 -645 0
1 731 -637 0
1 -721 644 0
1 721 -735 0
1 721 628 0
1 721 736 0
1 -734 732 0
1 -734 737 0
1 734 -738 0
1 734 -725 0
1 -737 -732 0
1 737 -725 0
1 -737 628 0
1 -737 -723 0
1 637 731 0
1 645 739 0
1 645 740 0
1 -645 741 0
1 -645 742 0
1 644 -641 0
1 644 -531 0
1 -644 741 0
1 644 742 0
1 739 732 0
1 -739 -618 0
1 -739 -735 0
1 739 637 0
1 -743 744 0
1 743 -644 0
1 -743 725 0
1 743 -651 0
1 743 637 0
1 742 732 0
1 733 -732 0
1 -733 725 0
1 733 -736 0
1 -745 -739 0
1 745 639 0
1 -745 652 0
1 745 -646 0
1 744 -740 0
1 744 -633 0
1 651 741 0
1 651 -649 0
1 746 -653 0
1 746 747 0
1 -746 748 0
1 -746 -651 0
1 -740 -746 0
1 -740 744 0
1 -740 -644 0
1 -740 -745 0
1 -639 651 0
1 -741 -746 0
1 -741 -744 0
1 741 644 0
1 -741 645 0
1 667 660 0
1 -667 749 0
1 -667 -661 0
1 -667 -665 0
1 -667 -557 0
1 665 655 0
1 -750 749 0
1 -750 669 0
1 750 751 0
1 -677 -666 0
1 677 -752 0
1 677 672 0
1 677 751 0
1 677 753 0
1 -677 -669 0
1 658 754 0
1 658 -749 0
1 658 -671 0
1 -658 -665 0
1 749 -755 0
1 -660 -659 0
1 660 -750 0
1 683 -675 0
1 -683 -752 0
1 -683 666 0
1 -671 -662 0
1 755 756 0
1 -755 676 0
1 -755 -658 0
1 -755 673 0
1 -754 756 0
1 -754 -658 0
1 754 -673 0
1 -666 -757 0
1 666 685 0
1 -666 -683 0
1 -666 -750 0
1 -751 -758 0
1 -751 666 0
1 -751 -671 0
1 -751 691 0
1 -751 -755 0
1 752 -754 0
1 752 759 0
1 752 -757 0
1 752 -683 0
1 -685 751 0
1 -685 -689 0
1 -679 686 0
1 679 -760 0
1 -691 -761 0
1 -691 751 0
1 691 760 0
1 691 684 0
1 -691 609 0
1 -691 678 0
1 -691 -673 0
1 -691 -762 0
1 -761 682 0
1 761 751 0
1 761 -678 0
1 -761 681 0
1 -761 -666 0
1 -762 -685 0
1 756 679 0
1 756 -762 0
1 -756 -763 0
1 -673 -691 0
1 -673 763 0
1 760 679 0
1 -764 682 0
1 764 -687 0
1 -764 -684 0
1 -764 693 0
1 -764 701 0
1 -701 -758 0
1 -701 765 0
1 -701 693 0
1 -766 682 0
1 766 -767 0
1 -766 756 0
1 -766 768 0
1 -769 682 0
1 -769 690 0
1 769 -767 0
1 769 -770 0
1 -769 620 0
1 -769 771 0
1 765 -764 0
1 765 -681 0
1 681 -772 0
1 681 -766 0
1 -681 764 0
1 681 571 0
1 681 769 0
1 -682 761 0
1 -682 766 0
1 -682 684 0
1 -684 -769 0
1 697 -598 0
1 697 681 0
1 -697 -692 0
1 697 693 0
1 -699 -681 0
1 -699 -692 0
1 699 693 0
1 -699 -623 0
1 773 -598 0
1 -773 681 0
1 773 770 0
1 -773 -696 0
1 -713 765 0
1 -713 -681 0
1 -767 -774 0
1 -767 697 0
1 -767 -766 0
1 767 -769 0
1 770 -775 0
1 -690 -686 0
1 -690 -772 0
1 690 773 0
1 -690 -775 0
1 692 773 0
1 692 -697 0
1 -692 775 0
1 692 -699 0
1 -711 716 0
1 711 -772 0
1 -709 767 0
1 -709 696 0
1 776 777 0
1 -776 770 0
1 -778 -767 0
1 -778 630 0
1 -778 770 0
1 -698 -779 0
1 -698 711 0
1 698 -713 0
1 780 -779 0
1 -780 -711 0
1 -780 698 0
1 -780 728 0
1 781 -782 0
1 -702 -781 0
1 702 778 0
1 779 -783 0
1 779 -719 0
1 -779 -780 0
1 -783 -716 0
1 783 -779 0
1 783 712 0
1 -727 710 0
1 727 -784 0
1 -727 698 0
1 -728 -785 0
1 -728 718 0
1 -728 715 0
1 728 725 0
1 728 786 0
1 -708 727 0
1 -708 728 0
1 -708 723 0
1 710 -727 0
1 710 708 0
1 -710 787 0
1 710 -723 0
1 -712 788 0
1 712 728 0
1 -786 -789 0
1 -786 -712 0
1 786 -696 0
1 -723 710 0
1 723 790 0
1 -723 -791 0
1 -723 726 0
1 -738 -789 0
1 -787 792 0
1 -787 734 0
1 792 708 0
1 792 790 0
1 791 -718 0
1 -791 738 0
1 791 728 0
1 791 714 0
1 -791 787 0
1 718 792 0
1 -718 -738 0
1 790 -792 0
1 785 793 0
1 785 -787 0
1 -785 723 0
1 736 -794 0
1 736 795 0
1 736 -721 0
1 -736 791 0
1 -736 -796 0
1 -736 -745 0
1 -797 729 0
1 -797 796 0
1 797 -736 0
1 -798 733 0
1 -798 -796 0
1 798 -742 0
1 747 794 0
1 747 729 0
1 -796 -795 0
1 794 -715 0
1 794 797 0
1 794 -787 0
1 -757 764 0
1 757 -799 0
1 -758 -800 0
1 768 -800 0
1 -768 -801 0
1 768 802 0
1 -768 771 0
1 771 -803 0
1 771 804 0
1 771 -768 0
1 771 801 0
1 -800 -805 0
1 -803 749 0
1 -803 757 0
1 803 806 0
1 807 757 0
1 -807 -771 0
1 808 -660 0
1 -805 -800 0
1 763 -759 0
1 763 -760 0
1 -763 -802 0
1 -809 -759 0
1 809 804 0
1 809 -800 0
1 -809 -802 0
1 -806 682 0
1 806 -800 0
1 806 801 0
1 -806 810 0
1 802 809 0
1 802 -768 0
1 -804 -772 0
1 -804 -809 0
1 -804 -768 0
1 804 763 0
1 801 809 0
1 801 805 0
1 801 -811 0
1 -801 -763 0
1 -801 -771 0
1 -759 -809 0
1 -772 690 0
1 772 -711 0
1 -772 812 0
1 772 813 0
1 -777 814 0
1 -777 -815 0
1 816 817 0
1 816 804 0
1 -816 692 0
1 814 772 0
1 -814 -818 0
1 -814 819 0
1 -814 -813 0
1 818 -784 0
1 -818 -772 0
1 -818 756 0
1 -818 -775 0
1 818 806 0
1 -810 820 0
1 810 -816 0
1 -810 -673 0
1 810 821 0
1 812 -777 0
1 -812 -772 0
1 -812 -809 0
1 812 816 0
1 -812 810 0
1 822 779 0
1 -822 781 0
1 822 818 0
1 822 775 0
1 822 -770 0
1 775 814 0
1 775 -822 0
1 -775 -783 0
1 775 -692 0
1 775 -815 0
1 784 781 0
1 -784 815 0
1 -784 -823 0
1 -784 824 0
1 -784 -702 0
1 819 784 0
1 819 -728 0
1 819 702 0
1 817 -765 0
1 -817 825 0
1 817 -816 0
1 -815 826 0
1 -815 -789 0
1 -815 -827 0
1 -828 -784 0
1 -828 825 0
1 828 819 0
1 -828 -829 0
1 829 -830 0
1 829 -820 0
1 -829 -775 0
1 -831 780 0
1 -789 832 0
1 -789 -823 0
1 789 -824 0
1 -827 -826 0
1 827 -712 0
1 827 -815 0
1 827 823 0
1 -827 786 0
1 827 -833 0
1 826 823 0
1 826 -824 0
1 774 -784 0
1 774 789 0
1 -774 819 0
1 824 831 0
1 824 -834 0
1 824 793 0
1 832 -825 0
1 -832 835 0
1 823 825 0
1 823 -789 0
1 -836 -785 0
1 -836 -788 0
1 788 -710 0
1 -788 -797 0
1 -788 -825 0
1 -788 -790 0
1 793 837 0
1 -834 785 0
1 -834 782 0
1 -834 838 0
1 839 -826 0
1 -837 834 0
1 -837 788 0
1 782 827 0
1 -840 822 0
1 840 804 0
1 -840 812 0
1 840 801 0
1 811 841 0
1 811 -842 0
1 -811 801 0
1 843 -844 0
1 -843 -842 0
1 843 845 0
1 846 -847 0
1 846 842 0
1 -842 843 0
1 842 830 0
1 -842 -846 0
1 -847 -840 0
1 -847 -811 0
1 847 842 0
1 -848 840 0
1 848 841 0
1 849 -828 0
1 849 -847 0
1 849 829 0
1 849 845 0
1 -849 -810 0
1 820 814 0
1 820 -849 0
1 820 -844 0
1 820 -789 0
1 820 829 0
1 -820 -845 0
1 833 842 0
1 -830 -844 0
1 845 -843 0
1 -845 802 0
1 850 -851 0
1 -850 804 0
1 850 -825 0
1 -850 -830 0
1 -850 846 0
1 -850 -852 0
1 -853 -843 0
1 -853 830 0
1 -853 820 0
1 844 849 0
1 -844 -853 0
1 844 -833 0
1 852 817 0
1 852 815 0
1 825 817 0
1 -825 823 0
1 835 -854 0
1 851 -832 0
1 -851 -850 0
1 851 855 0
1 -851 -823 0
1 -854 -852 0
1 -854 -833 0
1 -821 852 0
1 855 -851 0
1 -855 812 0
1 855 -821 0
1 855 -835 0
1 -855 852 0
1 855 -833 0
